NAME : dbj2924
COMMENT : Bonn VLSI data set with 2924 points
COMMENT : Uni Bonn, Research Institute for Discrete Math
COMMENT : Contributed by Andre Rohe
TYPE : TSP
DIMENSION : 2924
EDGE_WEIGHT_TYPE : EUC_2D
NODE_COORD_SECTION
1 0 103
2 0 107
3 0 109
4 0 115
5 0 116
6 0 117
7 0 121
8 0 127
9 0 128
10 0 13
11 0 147
12 0 148
13 0 177
14 0 183
15 0 184
16 0 19
17 0 193
18 0 195
19 0 196
20 0 204
21 0 238
22 0 243
23 0 244
24 0 248
25 0 25
26 0 250
27 0 256
28 0 260
29 0 262
30 0 268
31 0 27
32 0 274
33 0 28
34 0 280
35 0 286
36 0 29
37 0 30
38 0 31
39 0 37
40 0 43
41 0 44
42 0 49
43 0 51
44 0 54
45 0 55
46 0 61
47 0 65
48 0 67
49 0 7
50 0 73
51 0 74
52 0 79
53 0 83
54 0 85
55 0 86
56 0 91
57 0 97
58 2 10
59 2 100
60 2 101
61 2 102
62 2 104
63 2 106
64 2 107
65 2 108
66 2 111
67 2 115
68 2 117
69 2 12
70 2 120
71 2 131
72 2 14
73 2 143
74 2 151
75 2 152
76 2 16
77 2 161
78 2 163
79 2 165
80 2 167
81 2 168
82 2 171
83 2 176
84 2 178
85 2 18
86 2 180
87 2 182
88 2 185
89 2 187
90 2 189
91 2 191
92 2 194
93 2 196
94 2 199
95 2 20
96 2 201
97 2 203
98 2 205
99 2 208
100 2 210
101 2 212
102 2 214
103 2 217
104 2 218
105 2 22
106 2 222
107 2 223
108 2 226
109 2 227
110 2 228
111 2 233
112 2 235
113 2 238
114 2 24
115 2 242
116 2 244
117 2 251
118 2 252
119 2 254
120 2 255
121 2 258
122 2 26
123 2 269
124 2 27
125 2 283
126 2 285
127 2 29
128 2 31
129 2 32
130 2 34
131 2 36
132 2 38
133 2 40
134 2 42
135 2 43
136 2 44
137 2 46
138 2 47
139 2 48
140 2 50
141 2 52
142 2 54
143 2 56
144 2 73
145 2 75
146 2 76
147 2 77
148 2 79
149 2 81
150 2 82
151 2 83
152 2 98
153 3 220
154 5 139
155 5 156
156 5 166
157 5 174
158 5 177
159 5 181
160 5 186
161 5 190
162 5 242
163 5 244
164 5 246
165 5 248
166 5 41
167 5 51
168 5 54
169 5 68
170 5 72
171 5 8
172 5 89
173 5 97
174 8 17
175 8 170
176 8 25
177 8 29
178 8 39
179 8 85
180 8 91
181 9 10
182 9 104
183 9 170
184 9 175
185 9 18
186 9 184
187 9 29
188 9 32
189 9 52
190 9 73
191 9 79
192 9 85
193 9 91
194 9 98
195 10 119
196 10 130
197 10 142
198 10 165
199 10 170
200 10 175
201 10 184
202 10 241
203 10 257
204 10 268
205 10 30
206 10 40
207 10 50
208 10 52
209 10 55
210 10 85
211 10 91
212 11 100
213 11 106
214 11 119
215 11 130
216 11 137
217 11 142
218 11 154
219 11 157
220 11 165
221 11 170
222 11 175
223 11 184
224 11 241
225 11 247
226 11 257
227 11 268
228 11 279
229 11 29
230 11 40
231 11 50
232 11 52
233 11 55
234 11 66
235 11 75
236 11 81
237 11 85
238 11 92
239 12 17
240 12 170
241 12 25
242 12 39
243 12 5
244 12 85
245 15 0
246 15 166
247 15 17
248 15 242
249 15 244
250 15 246
251 15 248
252 15 25
253 15 31
254 15 39
255 15 41
256 15 51
257 15 8
258 16 0
259 16 131
260 16 143
261 17 0
262 17 115
263 17 117
264 17 152
265 17 168
266 17 194
267 17 196
268 17 203
269 17 205
270 17 212
271 17 214
272 17 217
273 17 223
274 17 226
275 17 233
276 17 235
277 17 238
278 17 252
279 17 255
280 17 27
281 17 43
282 17 44
283 17 47
284 17 48
285 18 0
286 18 111
287 18 172
288 18 173
289 18 199
290 18 201
291 18 208
292 18 210
293 18 221
294 18 227
295 18 86
296 18 87
297 18 89
298 18 91
299 18 95
300 18 96
301 19 0
302 20 0
303 25 0
304 25 11
305 25 123
306 25 124
307 25 128
308 25 129
309 25 13
310 25 132
311 25 133
312 25 134
313 25 139
314 25 141
315 25 148
316 25 149
317 25 15
318 25 150
319 25 154
320 25 156
321 25 158
322 25 160
323 25 163
324 25 165
325 25 168
326 25 169
327 25 17
328 25 173
329 25 174
330 25 177
331 25 178
332 25 179
333 25 184
334 25 20
335 25 211
336 25 212
337 25 22
338 25 222
339 25 223
340 25 225
341 25 237
342 25 238
343 25 239
344 25 24
345 25 240
346 25 26
347 25 264
348 25 265
349 25 269
350 25 270
351 25 273
352 25 274
353 25 275
354 25 280
355 25 282
356 25 285
357 25 29
358 25 30
359 25 34
360 25 35
361 25 38
362 25 39
363 25 40
364 25 45
365 25 47
366 25 70
367 25 71
368 25 81
369 25 82
370 25 84
371 25 96
372 25 97
373 25 98
374 25 99
375 26 126
376 26 171
377 26 226
378 26 267
379 26 32
380 26 85
381 28 145
382 28 8
383 32 115
384 32 256
385 34 115
386 34 143
387 34 149
388 34 186
389 34 190
390 34 256
391 34 49
392 35 5
393 36 0
394 37 0
395 38 0
396 38 8
397 40 123
398 40 129
399 40 132
400 40 139
401 40 141
402 40 15
403 40 158
404 40 160
405 40 163
406 40 165
407 40 168
408 40 17
409 40 174
410 40 177
411 40 184
412 40 211
413 40 237
414 40 239
415 40 24
416 40 26
417 40 264
418 40 270
419 40 273
420 40 280
421 40 282
422 40 285
423 40 29
424 40 35
425 40 38
426 40 45
427 40 47
428 40 70
429 40 96
430 40 98
431 41 11
432 41 127
433 41 13
434 41 133
435 41 150
436 41 154
437 41 156
438 41 172
439 41 178
440 41 20
441 41 210
442 41 22
443 41 221
444 41 227
445 41 240
446 41 268
447 41 274
448 41 33
449 41 39
450 41 69
451 41 80
452 41 86
453 41 99
454 42 0
455 48 100
456 48 101
457 48 106
458 48 108
459 48 111
460 48 113
461 48 120
462 48 125
463 48 13
464 48 136
465 48 142
466 48 144
467 48 149
468 48 151
469 48 153
470 48 155
471 48 157
472 48 159
473 48 162
474 48 163
475 48 164
476 48 165
477 48 183
478 48 184
479 48 187
480 48 190
481 48 191
482 48 192
483 48 193
484 48 196
485 48 198
486 48 203
487 48 206
488 48 208
489 48 210
490 48 212
491 48 215
492 48 216
493 48 220
494 48 221
495 48 224
496 48 225
497 48 226
498 48 231
499 48 233
500 48 236
501 48 237
502 48 24
503 48 241
504 48 242
505 48 245
506 48 246
507 48 247
508 48 252
509 48 254
510 48 257
511 48 258
512 48 262
513 48 263
514 48 266
515 48 267
516 48 268
517 48 273
518 48 285
519 48 287
520 48 35
521 48 46
522 48 47
523 48 51
524 48 52
525 48 55
526 48 56
527 48 57
528 48 62
529 48 69
530 48 70
531 48 74
532 48 75
533 48 78
534 48 79
535 48 80
536 48 85
537 48 87
538 48 90
539 48 91
540 48 95
541 48 96
542 48 99
543 49 218
544 49 239
545 49 260
546 49 49
547 49 72
548 49 93
549 51 112
550 51 116
551 51 120
552 51 123
553 51 137
554 51 148
555 51 169
556 51 172
557 51 176
558 51 188
559 51 197
560 51 201
561 51 203
562 51 6
563 51 8
564 52 0
565 53 0
566 54 0
567 54 149
568 54 180
569 55 110
570 55 149
571 55 198
572 56 110
573 56 119
574 56 12
575 56 124
576 56 136
577 56 150
578 56 187
579 56 196
580 56 198
581 56 202
582 56 23
583 56 275
584 56 34
585 57 110
586 57 115
587 57 119
588 57 12
589 57 122
590 57 124
591 57 136
592 57 138
593 57 147
594 57 149
595 57 168
596 57 170
597 57 187
598 57 196
599 57 198
600 57 202
601 57 23
602 57 281
603 57 34
604 57 5
605 57 64
606 58 180
607 58 198
608 61 116
609 61 120
610 61 123
611 61 137
612 61 148
613 61 151
614 61 169
615 61 188
616 61 197
617 61 201
618 61 203
619 61 6
620 61 8
621 63 106
622 63 108
623 63 157
624 63 159
625 63 210
626 63 212
627 63 215
628 63 221
629 63 224
630 63 231
631 63 233
632 63 236
633 63 242
634 63 245
635 63 252
636 63 254
637 63 257
638 63 263
639 63 266
640 63 273
641 63 46
642 63 52
643 63 55
644 63 62
645 63 69
646 63 75
647 63 78
648 63 85
649 63 87
650 63 90
651 63 96
652 63 99
653 64 100
654 64 153
655 64 155
656 64 162
657 64 164
658 64 165
659 64 190
660 64 192
661 64 193
662 64 199
663 64 200
664 64 206
665 64 208
666 64 219
667 64 225
668 64 240
669 64 246
670 64 261
671 64 267
672 64 50
673 64 56
674 64 73
675 64 79
676 64 94
677 65 0
678 71 0
679 71 10
680 71 101
681 71 102
682 71 106
683 71 107
684 71 110
685 71 111
686 71 112
687 71 117
688 71 119
689 71 12
690 71 122
691 71 124
692 71 13
693 71 14
694 71 143
695 71 145
696 71 148
697 71 153
698 71 154
699 71 158
700 71 172
701 71 174
702 71 18
703 71 196
704 71 197
705 71 20
706 71 201
707 71 202
708 71 206
709 71 207
710 71 21
711 71 212
712 71 22
713 71 221
714 71 222
715 71 226
716 71 227
717 71 230
718 71 231
719 71 232
720 71 237
721 71 239
722 71 241
723 71 242
724 71 258
725 71 269
726 71 284
727 71 35
728 71 37
729 71 40
730 71 42
731 71 44
732 71 46
733 71 48
734 71 51
735 71 52
736 71 56
737 71 57
738 71 60
739 71 61
740 71 62
741 71 67
742 71 74
743 71 75
744 71 79
745 71 80
746 71 84
747 71 85
748 71 90
749 72 0
750 72 104
751 72 199
752 72 224
753 72 54
754 72 77
755 74 122
756 74 124
757 74 128
758 74 132
759 74 138
760 74 148
761 74 159
762 74 165
763 74 168
764 74 173
765 74 178
766 74 181
767 74 185
768 74 190
769 74 194
770 74 248
771 74 256
772 74 26
773 74 30
774 74 49
775 74 8
776 74 99
777 77 150
778 78 0
779 78 12
780 78 157
781 78 171
782 78 20
783 79 121
784 79 147
785 79 171
786 79 214
787 79 257
788 79 268
789 79 48
790 79 92
791 80 11
792 80 121
793 80 126
794 80 137
795 80 139
796 80 147
797 80 157
798 80 166
799 80 171
800 80 176
801 80 179
802 80 188
803 80 19
804 80 193
805 80 24
806 80 257
807 80 268
808 80 31
809 80 48
810 80 69
811 80 98
812 81 150
813 81 162
814 81 244
815 81 27
816 81 5
817 84 122
818 84 124
819 84 138
820 84 14
821 84 148
822 84 165
823 84 194
824 84 22
825 84 30
826 84 49
827 84 8
828 84 99
829 86 101
830 86 107
831 86 110
832 86 117
833 86 119
834 86 196
835 86 202
836 86 212
837 86 221
838 86 227
839 86 230
840 86 237
841 86 239
842 86 242
843 86 44
844 86 46
845 86 51
846 86 57
847 86 60
848 86 67
849 86 74
850 86 80
851 86 90
852 87 0
853 87 105
854 87 111
855 87 200
856 87 206
857 87 225
858 87 231
859 87 284
860 87 40
861 87 42
862 87 55
863 87 61
864 87 78
865 87 84
866 88 0
867 89 0
868 90 0
869 91 0
870 92 0
871 94 100
872 94 106
873 94 11
874 94 110
875 94 112
876 94 115
877 94 117
878 94 120
879 94 122
880 94 125
881 94 127
882 94 139
883 94 141
884 94 157
885 94 160
886 94 166
887 94 168
888 94 171
889 94 177
890 94 179
891 94 191
892 94 193
893 94 216
894 94 217
895 94 227
896 94 228
897 94 230
898 94 24
899 94 242
900 94 243
901 94 244
902 94 245
903 94 268
904 94 284
905 94 34
906 94 36
907 94 37
908 94 39
909 94 40
910 94 42
911 94 43
912 94 45
913 94 46
914 94 47
915 94 49
916 94 51
917 94 53
918 94 56
919 94 69
920 94 72
921 94 74
922 94 77
923 94 81
924 94 86
925 94 88
926 94 90
927 94 92
928 94 95
929 94 97
930 95 231
931 97 100
932 97 111
933 97 115
934 97 117
935 97 120
936 97 122
937 97 126
938 97 140
939 97 147
940 97 155
941 97 157
942 97 164
943 97 167
944 97 171
945 97 173
946 97 178
947 97 184
948 97 187
949 97 192
950 97 269
951 97 274
952 97 282
953 97 288
954 97 42
955 97 44
956 97 53
957 97 56
958 97 59
959 97 6
960 97 64
961 97 67
962 97 69
963 97 73
964 97 78
965 97 8
966 97 82
967 97 96
968 100 34
969 100 37
970 100 49
971 101 0
972 101 109
973 101 124
974 101 138
975 101 165
976 101 176
977 101 190
978 101 261
979 101 34
980 101 37
981 101 40
982 101 49
983 101 71
984 101 76
985 101 94
986 102 109
987 102 114
988 102 119
989 102 124
990 102 138
991 102 156
992 102 165
993 102 176
994 102 190
995 102 23
996 102 268
997 102 35
998 102 38
999 102 40
1000 102 43
1001 102 50
1002 102 52
1003 102 55
1004 102 68
1005 102 71
1006 102 94
1007 103 109
1008 103 114
1009 103 119
1010 103 124
1011 103 133
1012 103 138
1013 103 156
1014 103 163
1015 103 165
1016 103 17
1017 103 172
1018 103 176
1019 103 185
1020 103 190
1021 103 195
1022 103 23
1023 103 261
1024 103 268
1025 103 286
1026 103 34
1027 103 37
1028 103 40
1029 103 43
1030 103 49
1031 103 5
1032 103 52
1033 103 55
1034 103 58
1035 103 63
1036 103 65
1037 103 68
1038 103 71
1039 103 76
1040 103 94
1041 104 143
1042 104 181
1043 104 270
1044 107 115
1045 107 117
1046 107 120
1047 107 122
1048 107 157
1049 107 164
1050 107 173
1051 107 184
1052 107 269
1053 107 36
1054 107 39
1055 107 44
1056 107 51
1057 107 53
1058 107 56
1059 107 59
1060 107 6
1061 107 64
1062 107 69
1063 107 8
1064 108 0
1065 109 11
1066 109 160
1067 109 216
1068 109 242
1069 109 244
1070 109 284
1071 109 46
1072 109 47
1073 109 90
1074 109 92
1075 110 106
1076 110 215
1077 110 226
1078 110 232
1079 110 245
1080 110 86
1081 110 88
1082 114 0
1083 116 293
1084 117 10
1085 117 101
1086 117 103
1087 117 112
1088 117 115
1089 117 117
1090 117 12
1091 117 120
1092 117 122
1093 117 125
1094 117 13
1095 117 14
1096 117 150
1097 117 155
1098 117 157
1099 117 174
1100 117 175
1101 117 179
1102 117 18
1103 117 181
1104 117 193
1105 117 195
1106 117 198
1107 117 20
1108 117 200
1109 117 203
1110 117 21
1111 117 215
1112 117 216
1113 117 22
1114 117 220
1115 117 221
1116 117 224
1117 117 225
1118 117 226
1119 117 231
1120 117 238
1121 117 239
1122 117 243
1123 117 244
1124 117 248
1125 117 249
1126 117 254
1127 117 256
1128 117 259
1129 117 26
1130 117 260
1131 117 264
1132 117 265
1133 117 268
1134 117 269
1135 117 270
1136 117 275
1137 117 277
1138 117 28
1139 117 284
1140 117 29
1141 117 30
1142 117 40
1143 117 42
1144 117 46
1145 117 51
1146 117 64
1147 117 68
1148 117 75
1149 117 82
1150 117 84
1151 117 87
1152 117 89
1153 117 93
1154 117 96
1155 117 98
1156 118 218
1157 118 241
1158 118 262
1159 120 102
1160 120 106
1161 120 110
1162 120 113
1163 120 116
1164 120 121
1165 120 125
1166 120 127
1167 120 130
1168 120 134
1169 120 140
1170 120 148
1171 120 151
1172 120 156
1173 120 162
1174 120 168
1175 120 170
1176 120 180
1177 120 185
1178 120 189
1179 120 194
1180 120 199
1181 120 203
1182 120 207
1183 120 213
1184 120 35
1185 120 46
1186 120 6
1187 120 65
1188 120 69
1189 120 8
1190 120 83
1191 120 87
1192 120 90
1193 120 94
1194 120 97
1195 123 0
1196 123 136
1197 123 142
1198 123 171
1199 124 0
1200 124 100
1201 124 114
1202 124 119
1203 124 12
1204 124 149
1205 124 154
1206 124 178
1207 124 192
1208 124 197
1209 124 20
1210 124 28
1211 124 63
1212 124 81
1213 124 88
1214 124 95
1215 125 0
1216 125 100
1217 125 112
1218 125 114
1219 125 119
1220 125 154
1221 125 178
1222 125 192
1223 125 197
1224 125 45
1225 125 48
1226 125 74
1227 125 81
1228 125 93
1229 125 95
1230 126 0
1231 126 100
1232 126 105
1233 126 11
1234 126 112
1235 126 114
1236 126 119
1237 126 126
1238 126 128
1239 126 149
1240 126 154
1241 126 169
1242 126 178
1243 126 183
1244 126 187
1245 126 19
1246 126 192
1247 126 197
1248 126 204
1249 126 233
1250 126 27
1251 126 36
1252 126 45
1253 126 48
1254 126 5
1255 126 63
1256 126 74
1257 126 81
1258 126 88
1259 126 93
1260 126 95
1261 127 0
1262 127 107
1263 127 136
1264 127 159
1265 127 171
1266 127 204
1267 127 32
1268 128 0
1269 130 106
1270 130 110
1271 130 113
1272 130 127
1273 130 14
1274 130 162
1275 130 168
1276 130 170
1277 130 207
1278 130 213
1279 130 22
1280 130 30
1281 130 35
1282 130 46
1283 130 6
1284 130 8
1285 130 94
1286 131 75
1287 132 215
1288 132 221
1289 132 224
1290 132 231
1291 132 238
1292 132 244
1293 132 254
1294 132 256
1295 132 259
1296 132 265
1297 132 268
1298 132 275
1299 132 277
1300 133 140
1301 133 147
1302 133 206
1303 133 212
1304 133 219
1305 133 225
1306 133 242
1307 133 248
1308 133 263
1309 133 269
1310 133 284
1311 137 0
1312 140 100
1313 140 104
1314 140 113
1315 140 118
1316 140 122
1317 140 126
1318 140 128
1319 140 131
1320 140 145
1321 140 147
1322 140 16
1323 140 165
1324 140 170
1325 140 175
1326 140 179
1327 140 18
1328 140 184
1329 140 186
1330 140 189
1331 140 192
1332 140 194
1333 140 195
1334 140 198
1335 140 199
1336 140 203
1337 140 204
1338 140 208
1339 140 209
1340 140 214
1341 140 223
1342 140 224
1343 140 228
1344 140 229
1345 140 233
1346 140 234
1347 140 239
1348 140 268
1349 140 269
1350 140 270
1351 140 273
1352 140 284
1353 140 29
1354 140 60
1355 140 62
1356 140 75
1357 140 80
1358 140 82
1359 140 85
1360 140 87
1361 140 90
1362 140 92
1363 140 94
1364 140 99
1365 141 201
1366 141 226
1367 143 105
1368 143 11
1369 143 119
1370 143 123
1371 143 126
1372 143 128
1373 143 132
1374 143 137
1375 143 141
1376 143 148
1377 143 152
1378 143 154
1379 143 157
1380 143 159
1381 143 166
1382 143 171
1383 143 176
1384 143 180
1385 143 185
1386 143 189
1387 143 191
1388 143 194
1389 143 196
1390 143 21
1391 143 24
1392 143 251
1393 143 259
1394 143 26
1395 143 262
1396 143 266
1397 143 288
1398 143 43
1399 143 49
1400 143 52
1401 143 56
1402 143 61
1403 143 67
1404 143 7
1405 143 73
1406 143 76
1407 143 80
1408 143 82
1409 143 86
1410 143 90
1411 143 92
1412 143 94
1413 144 0
1414 145 0
1415 146 116
1416 146 163
1417 146 96
1418 147 103
1419 147 116
1420 147 119
1421 147 123
1422 147 130
1423 147 163
1424 147 174
1425 147 183
1426 147 192
1427 147 59
1428 147 74
1429 147 84
1430 148 117
1431 148 121
1432 148 125
1433 148 147
1434 148 183
1435 148 192
1436 148 195
1437 148 216
1438 148 241
1439 148 272
1440 148 59
1441 148 79
1442 148 84
1443 148 91
1444 149 103
1445 149 12
1446 149 125
1447 149 130
1448 149 135
1449 149 147
1450 149 153
1451 149 156
1452 149 174
1453 149 183
1454 149 190
1455 149 192
1456 149 195
1457 149 20
1458 149 23
1459 149 260
1460 149 272
1461 149 286
1462 149 35
1463 149 5
1464 149 50
1465 149 59
1466 149 64
1467 149 74
1468 149 79
1469 149 84
1470 149 91
1471 150 149
1472 150 247
1473 150 40
1474 150 64
1475 150 8
1476 150 96
1477 153 11
1478 153 118
1479 153 122
1480 153 126
1481 153 128
1482 153 148
1483 153 152
1484 153 154
1485 153 157
1486 153 159
1487 153 166
1488 153 171
1489 153 191
1490 153 196
1491 153 21
1492 153 24
1493 153 26
1494 153 43
1495 153 49
1496 153 67
1497 153 73
1498 153 80
1499 153 82
1500 153 92
1501 153 94
1502 155 145
1503 155 198
1504 155 204
1505 155 214
1506 155 223
1507 155 229
1508 155 239
1509 155 269
1510 155 270
1511 155 284
1512 155 29
1513 156 113
1514 156 202
1515 156 208
1516 156 227
1517 156 233
1518 156 66
1519 156 72
1520 160 0
1521 161 0
1522 162 0
1523 163 10
1524 163 102
1525 163 104
1526 163 110
1527 163 111
1528 163 112
1529 163 12
1530 163 134
1531 163 139
1532 163 14
1533 163 144
1534 163 146
1535 163 149
1536 163 151
1537 163 154
1538 163 156
1539 163 159
1540 163 16
1541 163 161
1542 163 164
1543 163 165
1544 163 169
1545 163 170
1546 163 174
1547 163 175
1548 163 18
1549 163 180
1550 163 209
1551 163 210
1552 163 220
1553 163 221
1554 163 223
1555 163 235
1556 163 236
1557 163 237
1558 163 238
1559 163 262
1560 163 263
1561 163 267
1562 163 268
1563 163 271
1564 163 272
1565 163 273
1566 163 278
1567 163 37
1568 163 39
1569 163 46
1570 163 51
1571 163 76
1572 163 80
1573 163 89
1574 164 167
1575 164 224
1576 164 265
1577 166 103
1578 166 107
1579 166 109
1580 166 118
1581 166 126
1582 166 129
1583 166 135
1584 166 140
1585 166 145
1586 166 150
1587 166 154
1588 166 156
1589 166 160
1590 166 23
1591 166 27
1592 166 286
1593 166 31
1594 166 42
1595 166 47
1596 166 52
1597 166 58
1598 166 6
1599 166 62
1600 166 67
1601 166 73
1602 166 77
1603 166 8
1604 166 81
1605 166 85
1606 166 89
1607 166 92
1608 166 95
1609 166 99
1610 169 114
1611 169 120
1612 169 132
1613 169 44
1614 169 74
1615 170 10
1616 170 101
1617 170 132
1618 170 143
1619 170 148
1620 170 158
1621 170 17
1622 170 24
1623 170 254
1624 170 27
1625 170 31
1626 170 44
1627 170 55
1628 170 58
1629 170 62
1630 170 74
1631 170 77
1632 170 81
1633 171 101
1634 171 143
1635 171 148
1636 171 153
1637 171 158
1638 171 182
1639 171 25
1640 171 29
1641 171 56
1642 171 60
1643 171 75
1644 171 79
1645 171 88
1646 172 101
1647 172 106
1648 172 108
1649 172 127
1650 172 143
1651 172 148
1652 172 153
1653 172 158
1654 172 17
1655 172 188
1656 172 254
1657 172 280
1658 172 284
1659 172 33
1660 172 41
1661 172 5
1662 172 83
1663 172 88
1664 172 91
1665 172 93
1666 173 114
1667 173 20
1668 173 64
1669 176 107
1670 176 109
1671 176 135
1672 176 140
1673 176 154
1674 176 156
1675 176 19
1676 176 23
1677 176 26
1678 176 30
1679 176 42
1680 176 47
1681 176 52
1682 176 57
1683 176 6
1684 176 61
1685 176 67
1686 176 73
1687 176 76
1688 176 8
1689 176 80
1690 176 89
1691 176 92
1692 178 111
1693 178 112
1694 178 164
1695 178 170
1696 178 180
1697 178 209
1698 178 235
1699 178 237
1700 178 262
1701 178 268
1702 178 271
1703 178 278
1704 179 118
1705 179 125
1706 179 168
1707 179 174
1708 179 208
1709 179 219
1710 179 225
1711 179 238
1712 179 266
1713 179 272
1714 180 0
1715 181 0
1716 182 0
1717 186 10
1718 186 101
1719 186 103
1720 186 115
1721 186 117
1722 186 12
1723 186 121
1724 186 123
1725 186 126
1726 186 129
1727 186 133
1728 186 137
1729 186 139
1730 186 14
1731 186 143
1732 186 147
1733 186 16
1734 186 177
1735 186 179
1736 186 18
1737 186 192
1738 186 194
1739 186 197
1740 186 199
1741 186 216
1742 186 217
1743 186 221
1744 186 222
1745 186 226
1746 186 227
1747 186 232
1748 186 241
1749 186 242
1750 186 246
1751 186 247
1752 186 250
1753 186 251
1754 186 252
1755 186 257
1756 186 259
1757 186 262
1758 186 263
1759 186 267
1760 186 268
1761 186 271
1762 186 272
1763 186 273
1764 186 278
1765 186 28
1766 186 280
1767 186 286
1768 186 30
1769 186 51
1770 186 53
1771 186 6
1772 186 72
1773 186 73
1774 186 76
1775 186 82
1776 186 84
1777 186 85
1778 186 93
1779 186 96
1780 187 219
1781 187 244
1782 187 265
1783 189 102
1784 189 108
1785 189 122
1786 189 126
1787 189 130
1788 189 134
1789 189 137
1790 189 139
1791 189 144
1792 189 148
1793 189 152
1794 189 156
1795 189 160
1796 189 166
1797 189 170
1798 189 174
1799 189 177
1800 189 179
1801 189 184
1802 189 190
1803 189 192
1804 189 194
1805 189 197
1806 189 199
1807 189 203
1808 189 207
1809 189 212
1810 189 23
1811 189 283
1812 189 33
1813 189 36
1814 189 38
1815 189 43
1816 189 47
1817 189 51
1818 189 53
1819 189 58
1820 189 64
1821 189 89
1822 189 93
1823 189 97
1824 192 127
1825 192 141
1826 193 10
1827 193 100
1828 193 120
1829 193 127
1830 193 130
1831 193 134
1832 193 141
1833 193 144
1834 193 148
1835 193 167
1836 193 17
1837 193 170
1838 193 174
1839 193 65
1840 193 95
1841 194 100
1842 194 120
1843 194 128
1844 194 132
1845 194 136
1846 194 142
1847 194 146
1848 194 168
1849 194 172
1850 194 176
1851 194 191
1852 194 196
1853 194 234
1854 194 50
1855 194 92
1856 195 100
1857 195 106
1858 195 111
1859 195 120
1860 195 136
1861 195 150
1862 195 17
1863 195 176
1864 195 181
1865 195 191
1866 195 196
1867 195 201
1868 195 210
1869 195 24
1870 195 282
1871 195 32
1872 195 35
1873 195 41
1874 195 50
1875 195 55
1876 195 65
1877 195 87
1878 195 92
1879 195 95
1880 196 0
1881 196 153
1882 196 157
1883 196 181
1884 196 20
1885 196 55
1886 197 0
1887 197 293
1888 198 0
1889 199 129
1890 199 133
1891 199 137
1892 199 139
1893 199 143
1894 199 147
1895 199 156
1896 199 160
1897 199 166
1898 199 169
1899 199 173
1900 199 177
1901 199 179
1902 199 184
1903 199 19
1904 199 190
1905 199 192
1906 199 194
1907 199 197
1908 199 199
1909 199 23
1910 199 283
1911 199 33
1912 199 36
1913 199 38
1914 199 51
1915 199 53
1916 199 58
1917 199 64
1918 199 93
1919 201 216
1920 201 222
1921 201 232
1922 201 241
1923 201 247
1924 201 250
1925 201 257
1926 201 259
1927 201 262
1928 201 268
1929 201 271
1930 201 278
1931 201 280
1932 201 286
1933 201 6
1934 201 73
1935 201 79
1936 201 83
1937 202 183
1938 202 189
1939 202 220
1940 202 226
1941 202 245
1942 202 251
1943 202 266
1944 202 272
1945 202 57
1946 202 63
1947 202 71
1948 202 80
1949 202 84
1950 209 10
1951 209 102
1952 209 111
1953 209 114
1954 209 12
1955 209 121
1956 209 134
1957 209 139
1958 209 14
1959 209 141
1960 209 151
1961 209 153
1962 209 155
1963 209 157
1964 209 16
1965 209 160
1966 209 163
1967 209 166
1968 209 171
1969 209 176
1970 209 18
1971 209 186
1972 209 188
1973 209 20
1974 209 201
1975 209 203
1976 209 206
1977 209 208
1978 209 211
1979 209 214
1980 209 215
1981 209 219
1982 209 22
1983 209 220
1984 209 224
1985 209 225
1986 209 230
1987 209 239
1988 209 24
1989 209 240
1990 209 243
1991 209 245
1992 209 247
1993 209 249
1994 209 252
1995 209 255
1996 209 259
1997 209 26
1998 209 261
1999 209 263
2000 209 265
2001 209 267
2002 209 269
2003 209 271
2004 209 279
2005 209 28
2006 209 286
2007 209 30
2008 209 32
2009 209 34
2010 209 36
2011 209 38
2012 209 40
2013 209 42
2014 209 44
2015 209 46
2016 209 48
2017 209 50
2018 209 52
2019 209 54
2020 209 56
2021 209 58
2022 209 61
2023 209 74
2024 209 76
2025 209 88
2026 209 90
2027 209 93
2028 210 217
2029 212 102
2030 212 106
2031 212 108
2032 212 111
2033 212 127
2034 212 131
2035 212 135
2036 212 140
2037 212 144
2038 212 146
2039 212 160
2040 212 163
2041 212 166
2042 212 168
2043 212 172
2044 212 177
2045 212 182
2046 212 187
2047 212 192
2048 212 196
2049 212 198
2050 212 202
2051 212 206
2052 212 208
2053 212 211
2054 212 252
2055 212 255
2056 212 257
2057 212 260
2058 212 264
2059 212 267
2060 212 270
2061 212 274
2062 212 276
2063 212 65
2064 212 67
2065 212 69
2066 212 71
2067 212 75
2068 212 8
2069 212 81
2070 212 85
2071 212 88
2072 212 90
2073 215 169
2074 216 0
2075 216 10
2076 216 124
2077 216 127
2078 216 131
2079 216 133
2080 216 138
2081 216 169
2082 216 17
2083 216 185
2084 216 20
2085 216 200
2086 216 258
2087 216 265
2088 216 268
2089 216 27
2090 216 30
2091 216 37
2092 216 40
2093 216 47
2094 216 50
2095 216 57
2096 216 73
2097 216 78
2098 216 81
2099 216 85
2100 217 0
2101 217 101
2102 217 110
2103 217 125
2104 217 129
2105 217 138
2106 217 159
2107 217 162
2108 217 165
2109 217 185
2110 217 200
2111 217 205
2112 217 210
2113 217 232
2114 217 251
2115 217 254
2116 217 258
2117 217 263
2118 217 265
2119 217 268
2120 217 73
2121 217 79
2122 217 83
2123 217 87
2124 217 92
2125 218 0
2126 218 101
2127 218 104
2128 218 107
2129 218 110
2130 218 133
2131 218 138
2132 218 143
2133 218 159
2134 218 162
2135 218 165
2136 218 17
2137 218 180
2138 218 185
2139 218 190
2140 218 197
2141 218 200
2142 218 205
2143 218 210
2144 218 251
2145 218 254
2146 218 258
2147 218 263
2148 218 265
2149 218 268
2150 218 27
2151 218 273
2152 218 37
2153 218 47
2154 218 57
2155 218 63
2156 218 66
2157 218 68
2158 218 73
2159 218 87
2160 218 92
2161 219 193
2162 219 5
2163 222 102
2164 222 108
2165 222 111
2166 222 126
2167 222 130
2168 222 144
2169 222 146
2170 222 160
2171 222 163
2172 222 166
2173 222 168
2174 222 172
2175 222 177
2176 222 19
2177 222 196
2178 222 198
2179 222 206
2180 222 208
2181 222 211
2182 222 252
2183 222 255
2184 222 257
2185 222 264
2186 222 274
2187 222 276
2188 222 29
2189 222 39
2190 222 49
2191 222 59
2192 222 67
2193 222 69
2194 222 71
2195 222 8
2196 222 80
2197 222 84
2198 222 88
2199 222 90
2200 224 114
2201 224 155
2202 224 157
2203 224 214
2204 224 220
2205 224 230
2206 224 239
2207 224 247
2208 224 249
2209 224 279
2210 224 61
2211 225 121
2212 225 151
2213 225 153
2214 225 218
2215 225 224
2216 225 243
2217 225 245
2218 225 286
2219 231 293
2220 232 0
2221 232 10
2222 232 106
2223 232 116
2224 232 118
2225 232 12
2226 232 120
2227 232 14
2228 232 148
2229 232 150
2230 232 152
2231 232 154
2232 232 156
2233 232 16
2234 232 161
2235 232 165
2236 232 167
2237 232 176
2238 232 18
2239 232 180
2240 232 182
2241 232 183
2242 232 186
2243 232 188
2244 232 191
2245 232 196
2246 232 20
2247 232 200
2248 232 202
2249 232 204
2250 232 206
2251 232 209
2252 232 212
2253 232 213
2254 232 217
2255 232 218
2256 232 22
2257 232 222
2258 232 223
2259 232 228
2260 232 236
2261 232 239
2262 232 24
2263 232 241
2264 232 243
2265 232 245
2266 232 255
2267 232 257
2268 232 26
2269 232 260
2270 232 262
2271 232 263
2272 232 268
2273 232 270
2274 232 278
2275 232 28
2276 232 30
2277 232 32
2278 232 34
2279 232 36
2280 232 38
2281 232 40
2282 232 42
2283 232 44
2284 232 46
2285 232 48
2286 232 57
2287 232 66
2288 232 72
2289 233 0
2290 233 215
2291 234 0
2292 235 105
2293 235 107
2294 235 111
2295 235 113
2296 235 116
2297 235 118
2298 235 120
2299 235 124
2300 235 128
2301 235 131
2302 235 138
2303 235 146
2304 235 148
2305 235 150
2306 235 152
2307 235 154
2308 235 156
2309 235 160
2310 235 164
2311 235 166
2312 235 168
2313 235 172
2314 235 179
2315 235 183
2316 235 187
2317 235 196
2318 235 209
2319 235 237
2320 235 250
2321 235 262
2322 235 266
2323 235 269
2324 235 275
2325 235 281
2326 235 284
2327 235 288
2328 235 53
2329 235 6
2330 235 70
2331 235 84
2332 235 88
2333 235 90
2334 235 97
2335 238 134
2336 238 140
2337 238 180
2338 238 93
2339 238 99
2340 239 10
2341 239 161
2342 239 169
2343 239 17
2344 239 176
2345 239 180
2346 239 183
2347 239 185
2348 239 20
2349 239 260
2350 239 263
2351 239 267
2352 239 27
2353 239 272
2354 239 30
2355 239 37
2356 239 40
2357 239 47
2358 240 106
2359 240 115
2360 240 147
2361 240 161
2362 240 165
2363 240 167
2364 240 169
2365 240 176
2366 240 181
2367 240 185
2368 240 195
2369 240 208
2370 240 230
2371 240 236
2372 240 260
2373 240 263
2374 240 267
2375 240 272
2376 240 56
2377 240 71
2378 241 106
2379 241 112
2380 241 115
2381 241 122
2382 241 129
2383 241 147
2384 241 158
2385 241 161
2386 241 165
2387 241 167
2388 241 169
2389 241 17
2390 241 176
2391 241 180
2392 241 185
2393 241 195
2394 241 208
2395 241 236
2396 241 251
2397 241 260
2398 241 263
2399 241 267
2400 241 27
2401 241 272
2402 241 282
2403 241 293
2404 241 37
2405 241 47
2406 241 5
2407 241 56
2408 241 68
2409 241 71
2410 241 82
2411 241 87
2412 242 108
2413 242 134
2414 242 161
2415 242 169
2416 242 176
2417 242 247
2418 242 263
2419 242 272
2420 242 50
2421 242 93
2422 245 107
2423 245 111
2424 245 113
2425 245 116
2426 245 118
2427 245 120
2428 245 148
2429 245 150
2430 245 152
2431 245 154
2432 245 156
2433 245 164
2434 245 166
2435 245 168
2436 245 172
2437 245 179
2438 245 182
2439 245 19
2440 245 196
2441 245 209
2442 245 237
2443 245 250
2444 245 266
2445 245 275
2446 245 281
2447 245 29
2448 245 39
2449 245 49
2450 245 53
2451 245 6
2452 245 88
2453 245 90
2454 247 191
2455 247 204
2456 247 206
2457 247 212
2458 247 218
2459 247 228
2460 247 243
2461 247 245
2462 247 66
2463 248 104
2464 248 138
2465 248 145
2466 248 162
2467 248 163
2468 248 170
2469 248 171
2470 248 173
2471 248 174
2472 248 177
2473 248 178
2474 248 200
2475 248 202
2476 248 216
2477 248 222
2478 248 239
2479 248 241
2480 248 264
2481 248 265
2482 248 273
2483 248 274
2484 248 276
2485 248 277
2486 248 279
2487 248 280
2488 248 97
2489 252 0
2490 253 0
2491 254 0
2492 255 10
2493 255 112
2494 255 114
2495 255 119
2496 255 12
2497 255 123
2498 255 128
2499 255 130
2500 255 132
2501 255 134
2502 255 137
2503 255 14
2504 255 150
2505 255 16
2506 255 163
2507 255 173
2508 255 174
2509 255 179
2510 255 18
2511 255 191
2512 255 194
2513 255 196
2514 255 20
2515 255 215
2516 255 217
2517 255 22
2518 255 221
2519 255 225
2520 255 230
2521 255 234
2522 255 236
2523 255 238
2524 255 24
2525 255 240
2526 255 242
2527 255 243
2528 255 246
2529 255 247
2530 255 249
2531 255 258
2532 255 26
2533 255 268
2534 255 271
2535 255 28
2536 255 286
2537 255 31
2538 255 38
2539 255 44
2540 255 46
2541 255 48
2542 255 50
2543 255 51
2544 255 53
2545 255 78
2546 255 79
2547 255 80
2548 255 81
2549 255 85
2550 255 91
2551 256 86
2552 258 105
2553 258 109
2554 258 113
2555 258 117
2556 258 120
2557 258 124
2558 258 137
2559 258 140
2560 258 143
2561 258 145
2562 258 192
2563 258 201
2564 258 205
2565 258 209
2566 258 221
2567 258 223
2568 258 225
2569 258 227
2570 258 230
2571 258 232
2572 258 235
2573 258 239
2574 258 243
2575 258 249
2576 258 252
2577 258 256
2578 258 269
2579 258 45
2580 258 52
2581 258 56
2582 258 7
2583 258 99
2584 261 240
2585 261 48
2586 262 10
2587 262 114
2588 262 118
2589 262 17
2590 262 20
2591 262 202
2592 262 205
2593 262 209
2594 262 233
2595 262 240
2596 262 243
2597 262 247
2598 262 27
2599 262 43
2600 262 48
2601 262 53
2602 262 96
2603 263 112
2604 263 114
2605 263 136
2606 263 147
2607 263 162
2608 263 176
2609 263 191
2610 263 203
2611 263 207
2612 263 220
2613 263 224
2614 263 229
2615 263 233
2616 263 238
2617 263 241
2618 263 245
2619 263 247
2620 263 257
2621 263 268
2622 263 270
2623 263 43
2624 263 49
2625 263 51
2626 263 53
2627 263 96
2628 264 103
2629 264 112
2630 264 114
2631 264 118
2632 264 136
2633 264 139
2634 264 142
2635 264 147
2636 264 162
2637 264 17
2638 264 176
2639 264 191
2640 264 211
2641 264 220
2642 264 224
2643 264 229
2644 264 233
2645 264 238
2646 264 240
2647 264 247
2648 264 250
2649 264 257
2650 264 268
2651 264 27
2652 264 270
2653 264 43
2654 264 48
2655 264 5
2656 264 51
2657 264 53
2658 264 57
2659 264 96
2660 265 114
2661 265 198
2662 265 253
2663 265 53
2664 265 96
2665 268 0
2666 268 113
2667 268 117
2668 268 137
2669 268 140
2670 268 143
2671 268 145
2672 268 19
2673 268 192
2674 268 201
2675 268 204
2676 268 208
2677 268 221
2678 268 223
2679 268 225
2680 268 227
2681 268 230
2682 268 232
2683 268 239
2684 268 242
2685 268 246
2686 268 256
2687 268 269
2688 268 29
2689 268 50
2690 268 52
2691 268 56
2692 268 99
2693 269 0
2694 270 0
2695 270 132
2696 270 134
2697 270 174
2698 270 194
2699 270 196
2700 270 31
2701 270 78
2702 270 80
2703 270 87
2704 270 91
2705 271 100
2706 271 101
2707 271 115
2708 271 116
2709 271 128
2710 271 130
2711 271 286
2712 271 38
2713 271 54
2714 271 55
2715 271 77
2716 271 79
2717 271 88
2718 271 92
2719 271 97
2720 271 99
2721 278 10
2722 278 100
2723 278 103
2724 278 105
2725 278 107
2726 278 109
2727 278 112
2728 278 12
2729 278 135
2730 278 137
2731 278 14
2732 278 140
2733 278 150
2734 278 16
2735 278 168
2736 278 18
2737 278 181
2738 278 184
2739 278 20
2740 278 202
2741 278 211
2742 278 22
2743 278 223
2744 278 239
2745 278 24
2746 278 252
2747 278 258
2748 278 26
2749 278 267
2750 278 276
2751 278 28
2752 278 30
2753 278 32
2754 278 34
2755 278 36
2756 278 38
2757 278 49
2758 278 6
2759 278 72
2760 278 73
2761 278 76
2762 278 82
2763 278 84
2764 278 85
2765 278 96
2766 278 97
2767 278 99
2768 281 125
2769 281 129
2770 281 164
2771 281 193
2772 281 196
2773 281 198
2774 281 237
2775 281 41
2776 281 43
2777 281 62
2778 281 89
2779 281 93
2780 285 10
2781 285 122
2782 285 125
2783 285 129
2784 285 17
2785 285 20
2786 285 27
2787 285 30
2788 285 37
2789 285 65
2790 286 111
2791 286 123
2792 286 127
2793 286 139
2794 286 147
2795 286 165
2796 286 183
2797 286 201
2798 286 210
2799 286 220
2800 286 238
2801 286 257
2802 286 266
2803 286 46
2804 287 111
2805 287 131
2806 287 139
2807 287 147
2808 287 162
2809 287 165
2810 287 17
2811 287 183
2812 287 192
2813 287 195
2814 287 201
2815 287 210
2816 287 220
2817 287 235
2818 287 238
2819 287 257
2820 287 266
2821 287 27
2822 287 282
2823 287 37
2824 287 40
2825 287 46
2826 287 61
2827 287 65
2828 287 87
2829 288 0
2830 289 0
2831 290 0
2832 291 124
2833 291 128
2834 291 19
2835 291 193
2836 291 196
2837 291 198
2838 291 29
2839 291 293
2840 291 39
2841 291 41
2842 291 43
2843 291 62
2844 292 0
2845 292 140
2846 293 100
2847 293 107
2848 293 109
2849 293 181
2850 293 276
2851 293 6
2852 293 73
2853 293 79
2854 293 83
2855 293 97
2856 294 103
2857 294 105
2858 294 252
2859 294 71
2860 294 80
2861 294 84
2862 299 103
2863 299 109
2864 299 115
2865 299 121
2866 299 127
2867 299 13
2868 299 133
2869 299 139
2870 299 145
2871 299 147
2872 299 151
2873 299 153
2874 299 157
2875 299 159
2876 299 163
2877 299 165
2878 299 169
2879 299 17
2880 299 171
2881 299 175
2882 299 177
2883 299 181
2884 299 187
2885 299 189
2886 299 19
2887 299 190
2888 299 193
2889 299 196
2890 299 199
2891 299 202
2892 299 203
2893 299 205
2894 299 208
2895 299 214
2896 299 220
2897 299 226
2898 299 232
2899 299 238
2900 299 244
2901 299 25
2902 299 250
2903 299 256
2904 299 262
2905 299 268
2906 299 274
2907 299 280
2908 299 286
2909 299 31
2910 299 37
2911 299 39
2912 299 43
2913 299 49
2914 299 55
2915 299 61
2916 299 67
2917 299 7
2918 299 73
2919 299 74
2920 299 79
2921 299 85
2922 299 91
2923 299 92
2924 299 97
EOF
